c Software verification instances generated by
c Calysto static checker. For more information
c contact Domagoj Babic (Google for my email).
c Verified property:
c NULL ptr dereference check
c Location in code: /work/benchmarks/SOURCES/HyperSAT/fheap.h:166
p cnf 436 972
1 0 
-2 0 
-35 0 
-36 0 
-37 0 
-38 0 
-39 0 
-40 0 
-41 0 
-42 0 
-43 0 
-44 0 
-45 0 
-46 0 
-47 0 
-48 0 
-49 0 
-50 0 
-51 0 
-52 0 
-53 0 
-54 0 
-55 0 
-56 0 
-57 0 
-58 0 
-59 0 
-60 0 
-61 0 
-62 0 
-63 0 
-64 0 
-65 0 
-66 0 
328 0 
-436 0 
3 68 0
-3 -35 68 0
-3 -68 0
3 -35 -68 0
4 69 0
-4 -36 69 0
-4 -69 0
4 -36 -69 0
5 70 0
-5 -37 70 0
-5 -70 0
5 -37 -70 0
6 71 0
-6 -38 71 0
-6 -71 0
6 -38 -71 0
7 72 0
-7 -39 72 0
-7 -72 0
7 -39 -72 0
8 73 0
-8 -40 73 0
-8 -73 0
8 -40 -73 0
9 74 0
-9 -41 74 0
-9 -74 0
9 -41 -74 0
10 75 0
-10 -42 75 0
-10 -75 0
10 -42 -75 0
11 76 0
-11 -43 76 0
-11 -76 0
11 -43 -76 0
12 77 0
-12 -44 77 0
-12 -77 0
12 -44 -77 0
13 78 0
-13 -45 78 0
-13 -78 0
13 -45 -78 0
14 79 0
-14 -46 79 0
-14 -79 0
14 -46 -79 0
15 80 0
-15 -47 80 0
-15 -80 0
15 -47 -80 0
16 81 0
-16 -48 81 0
-16 -81 0
16 -48 -81 0
17 82 0
-17 -49 82 0
-17 -82 0
17 -49 -82 0
18 83 0
-18 -50 83 0
-18 -83 0
18 -50 -83 0
19 84 0
-19 -51 84 0
-19 -84 0
19 -51 -84 0
20 85 0
-20 -52 85 0
-20 -85 0
20 -52 -85 0
21 86 0
-21 -53 86 0
-21 -86 0
21 -53 -86 0
22 87 0
-22 -54 87 0
-22 -87 0
22 -54 -87 0
23 88 0
-23 -55 88 0
-23 -88 0
23 -55 -88 0
24 89 0
-24 -56 89 0
-24 -89 0
24 -56 -89 0
25 90 0
-25 -57 90 0
-25 -90 0
25 -57 -90 0
26 91 0
-26 -58 91 0
-26 -91 0
26 -58 -91 0
27 92 0
-27 -59 92 0
-27 -92 0
27 -59 -92 0
28 93 0
-28 -60 93 0
-28 -93 0
28 -60 -93 0
29 94 0
-29 -61 94 0
-29 -94 0
29 -61 -94 0
30 95 0
-30 -62 95 0
-30 -95 0
30 -62 -95 0
31 96 0
-31 -63 96 0
-31 -96 0
31 -63 -96 0
32 97 0
-32 -64 97 0
-32 -97 0
32 -64 -97 0
33 98 0
-33 -65 98 0
-33 -98 0
33 -65 -98 0
34 99 0
-34 -66 99 0
-34 -99 0
34 -66 -99 0
-68 100 0
1 -100 0
68 -100 0
-69 -100 101 0
100 -101 0
69 -101 0
-70 -101 102 0
101 -102 0
70 -102 0
-71 -102 103 0
102 -103 0
71 -103 0
-72 -103 104 0
103 -104 0
72 -104 0
-73 -104 105 0
104 -105 0
73 -105 0
-74 -105 106 0
105 -106 0
74 -106 0
-75 -106 107 0
106 -107 0
75 -107 0
-76 -107 108 0
107 -108 0
76 -108 0
-77 -108 109 0
108 -109 0
77 -109 0
-78 -109 110 0
109 -110 0
78 -110 0
-79 -110 111 0
110 -111 0
79 -111 0
-80 -111 112 0
111 -112 0
80 -112 0
-81 -112 113 0
112 -113 0
81 -113 0
-82 -113 114 0
113 -114 0
82 -114 0
-83 -114 115 0
114 -115 0
83 -115 0
-84 -115 116 0
115 -116 0
84 -116 0
-85 -116 117 0
116 -117 0
85 -117 0
-86 -117 118 0
117 -118 0
86 -118 0
-87 -118 119 0
118 -119 0
87 -119 0
-88 -119 120 0
119 -120 0
88 -120 0
-89 -120 121 0
120 -121 0
89 -121 0
-90 -121 122 0
121 -122 0
90 -122 0
-91 -122 123 0
122 -123 0
91 -123 0
-92 -123 124 0
123 -124 0
92 -124 0
-93 -124 125 0
124 -125 0
93 -125 0
-94 -125 126 0
125 -126 0
94 -126 0
-95 -126 127 0
126 -127 0
95 -127 0
-96 -127 128 0
127 -128 0
96 -128 0
-97 -128 129 0
128 -129 0
97 -129 0
-98 -129 130 0
129 -130 0
98 -130 0
-99 -130 131 0
130 -131 0
99 -131 0
-67 131 0
67 -131 0
132 165 0
-35 -132 165 0
-132 -165 0
-35 132 -165 0
133 166 0
-36 -133 166 0
-133 -166 0
-36 133 -166 0
134 167 0
-37 -134 167 0
-134 -167 0
-37 134 -167 0
135 168 0
-38 -135 168 0
-135 -168 0
-38 135 -168 0
136 169 0
-39 -136 169 0
-136 -169 0
-39 136 -169 0
137 170 0
-40 -137 170 0
-137 -170 0
-40 137 -170 0
138 171 0
-41 -138 171 0
-138 -171 0
-41 138 -171 0
139 172 0
-42 -139 172 0
-139 -172 0
-42 139 -172 0
140 173 0
-43 -140 173 0
-140 -173 0
-43 140 -173 0
141 174 0
-44 -141 174 0
-141 -174 0
-44 141 -174 0
142 175 0
-45 -142 175 0
-142 -175 0
-45 142 -175 0
143 176 0
-46 -143 176 0
-143 -176 0
-46 143 -176 0
144 177 0
-47 -144 177 0
-144 -177 0
-47 144 -177 0
145 178 0
-48 -145 178 0
-145 -178 0
-48 145 -178 0
146 179 0
-49 -146 179 0
-146 -179 0
-49 146 -179 0
147 180 0
-50 -147 180 0
-147 -180 0
-50 147 -180 0
148 181 0
-51 -148 181 0
-148 -181 0
-51 148 -181 0
149 182 0
-52 -149 182 0
-149 -182 0
-52 149 -182 0
150 183 0
-53 -150 183 0
-150 -183 0
-53 150 -183 0
151 184 0
-54 -151 184 0
-151 -184 0
-54 151 -184 0
152 185 0
-55 -152 185 0
-152 -185 0
-55 152 -185 0
153 186 0
-56 -153 186 0
-153 -186 0
-56 153 -186 0
154 187 0
-57 -154 187 0
-154 -187 0
-57 154 -187 0
155 188 0
-58 -155 188 0
-155 -188 0
-58 155 -188 0
156 189 0
-59 -156 189 0
-156 -189 0
-59 156 -189 0
157 190 0
-60 -157 190 0
-157 -190 0
-60 157 -190 0
158 191 0
-61 -158 191 0
-158 -191 0
-61 158 -191 0
159 192 0
-62 -159 192 0
-159 -192 0
-62 159 -192 0
160 193 0
-63 -160 193 0
-160 -193 0
-63 160 -193 0
161 194 0
-64 -161 194 0
-161 -194 0
-64 161 -194 0
162 195 0
-65 -162 195 0
-162 -195 0
-65 162 -195 0
163 196 0
-66 -163 196 0
-163 -196 0
-66 163 -196 0
-165 197 0
1 -197 0
165 -197 0
-166 -197 198 0
197 -198 0
166 -198 0
-167 -198 199 0
198 -199 0
167 -199 0
-168 -199 200 0
199 -200 0
168 -200 0
-169 -200 201 0
200 -201 0
169 -201 0
-170 -201 202 0
201 -202 0
170 -202 0
-171 -202 203 0
202 -203 0
171 -203 0
-172 -203 204 0
203 -204 0
172 -204 0
-173 -204 205 0
204 -205 0
173 -205 0
-174 -205 206 0
205 -206 0
174 -206 0
-175 -206 207 0
206 -207 0
175 -207 0
-176 -207 208 0
207 -208 0
176 -208 0
-177 -208 209 0
208 -209 0
177 -209 0
-178 -209 210 0
209 -210 0
178 -210 0
-179 -210 211 0
210 -211 0
179 -211 0
-180 -211 212 0
211 -212 0
180 -212 0
-181 -212 213 0
212 -213 0
181 -213 0
-182 -213 214 0
213 -214 0
182 -214 0
-183 -214 215 0
214 -215 0
183 -215 0
-184 -215 216 0
215 -216 0
184 -216 0
-185 -216 217 0
216 -217 0
185 -217 0
-186 -217 218 0
217 -218 0
186 -218 0
-187 -218 219 0
218 -219 0
187 -219 0
-188 -219 220 0
219 -220 0
188 -220 0
-189 -220 221 0
220 -221 0
189 -221 0
-190 -221 222 0
221 -222 0
190 -222 0
-191 -222 223 0
222 -223 0
191 -223 0
-192 -223 224 0
223 -224 0
192 -224 0
-193 -224 225 0
224 -225 0
193 -225 0
-194 -225 226 0
225 -226 0
194 -226 0
-195 -226 227 0
226 -227 0
195 -227 0
-196 -227 228 0
227 -228 0
196 -228 0
-164 228 0
164 -228 0
229 262 0
-35 -229 262 0
-229 -262 0
-35 229 -262 0
230 263 0
-36 -230 263 0
-230 -263 0
-36 230 -263 0
231 264 0
-37 -231 264 0
-231 -264 0
-37 231 -264 0
232 265 0
-38 -232 265 0
-232 -265 0
-38 232 -265 0
233 266 0
-39 -233 266 0
-233 -266 0
-39 233 -266 0
234 267 0
-40 -234 267 0
-234 -267 0
-40 234 -267 0
235 268 0
-41 -235 268 0
-235 -268 0
-41 235 -268 0
236 269 0
-42 -236 269 0
-236 -269 0
-42 236 -269 0
237 270 0
-43 -237 270 0
-237 -270 0
-43 237 -270 0
238 271 0
-44 -238 271 0
-238 -271 0
-44 238 -271 0
239 272 0
-45 -239 272 0
-239 -272 0
-45 239 -272 0
240 273 0
-46 -240 273 0
-240 -273 0
-46 240 -273 0
241 274 0
-47 -241 274 0
-241 -274 0
-47 241 -274 0
242 275 0
-48 -242 275 0
-242 -275 0
-48 242 -275 0
243 276 0
-49 -243 276 0
-243 -276 0
-49 243 -276 0
244 277 0
-50 -244 277 0
-244 -277 0
-50 244 -277 0
245 278 0
-51 -245 278 0
-245 -278 0
-51 245 -278 0
246 279 0
-52 -246 279 0
-246 -279 0
-52 246 -279 0
247 280 0
-53 -247 280 0
-247 -280 0
-53 247 -280 0
248 281 0
-54 -248 281 0
-248 -281 0
-54 248 -281 0
249 282 0
-55 -249 282 0
-249 -282 0
-55 249 -282 0
250 283 0
-56 -250 283 0
-250 -283 0
-56 250 -283 0
251 284 0
-57 -251 284 0
-251 -284 0
-57 251 -284 0
252 285 0
-58 -252 285 0
-252 -285 0
-58 252 -285 0
253 286 0
-59 -253 286 0
-253 -286 0
-59 253 -286 0
254 287 0
-60 -254 287 0
-254 -287 0
-60 254 -287 0
255 288 0
-61 -255 288 0
-255 -288 0
-61 255 -288 0
256 289 0
-62 -256 289 0
-256 -289 0
-62 256 -289 0
257 290 0
-63 -257 290 0
-257 -290 0
-63 257 -290 0
258 291 0
-64 -258 291 0
-258 -291 0
-64 258 -291 0
259 292 0
-65 -259 292 0
-259 -292 0
-65 259 -292 0
260 293 0
-66 -260 293 0
-260 -293 0
-66 260 -293 0
-262 294 0
1 -294 0
262 -294 0
-263 -294 295 0
294 -295 0
263 -295 0
-264 -295 296 0
295 -296 0
264 -296 0
-265 -296 297 0
296 -297 0
265 -297 0
-266 -297 298 0
297 -298 0
266 -298 0
-267 -298 299 0
298 -299 0
267 -299 0
-268 -299 300 0
299 -300 0
268 -300 0
-269 -300 301 0
300 -301 0
269 -301 0
-270 -301 302 0
301 -302 0
270 -302 0
-271 -302 303 0
302 -303 0
271 -303 0
-272 -303 304 0
303 -304 0
272 -304 0
-273 -304 305 0
304 -305 0
273 -305 0
-274 -305 306 0
305 -306 0
274 -306 0
-275 -306 307 0
306 -307 0
275 -307 0
-276 -307 308 0
307 -308 0
276 -308 0
-277 -308 309 0
308 -309 0
277 -309 0
-278 -309 310 0
309 -310 0
278 -310 0
-279 -310 311 0
310 -311 0
279 -311 0
-280 -311 312 0
311 -312 0
280 -312 0
-281 -312 313 0
312 -313 0
281 -313 0
-282 -313 314 0
313 -314 0
282 -314 0
-283 -314 315 0
314 -315 0
283 -315 0
-284 -315 316 0
315 -316 0
284 -316 0
-285 -316 317 0
316 -317 0
285 -317 0
-286 -317 318 0
317 -318 0
286 -318 0
-287 -318 319 0
318 -319 0
287 -319 0
-288 -319 320 0
319 -320 0
288 -320 0
-289 -320 321 0
320 -321 0
289 -321 0
-290 -321 322 0
321 -322 0
290 -322 0
-291 -322 323 0
322 -323 0
291 -323 0
-292 -323 324 0
323 -324 0
292 -324 0
-293 -324 325 0
324 -325 0
293 -325 0
-261 325 0
261 -325 0
-261 -326 327 0
261 -327 0
326 -327 0
-261 -327 329 0
-261 327 -329 0
261 329 0
261 328 -329 0
-164 -329 330 0
164 -330 0
329 -330 0
-330 -331 332 0
330 -332 0
331 -332 0
-164 -332 333 0
-164 332 -333 0
164 -329 333 0
164 329 -333 0
-67 -333 334 0
333 -334 0
67 -334 0
-334 -335 336 0
334 -336 0
335 -336 0
-67 -336 337 0
-67 336 -337 0
67 -333 337 0
67 333 -337 0
338 372 0
-35 -338 372 0
-338 -372 0
-35 338 -372 0
339 373 0
-36 -339 373 0
-339 -373 0
-36 339 -373 0
340 374 0
-37 -340 374 0
-340 -374 0
-37 340 -374 0
341 375 0
-38 -341 375 0
-341 -375 0
-38 341 -375 0
342 376 0
-39 -342 376 0
-342 -376 0
-39 342 -376 0
343 377 0
-40 -343 377 0
-343 -377 0
-40 343 -377 0
344 378 0
-41 -344 378 0
-344 -378 0
-41 344 -378 0
345 379 0
-42 -345 379 0
-345 -379 0
-42 345 -379 0
346 380 0
-43 -346 380 0
-346 -380 0
-43 346 -380 0
347 381 0
-44 -347 381 0
-347 -381 0
-44 347 -381 0
348 382 0
-45 -348 382 0
-348 -382 0
-45 348 -382 0
349 383 0
-46 -349 383 0
-349 -383 0
-46 349 -383 0
350 384 0
-47 -350 384 0
-350 -384 0
-47 350 -384 0
351 385 0
-48 -351 385 0
-351 -385 0
-48 351 -385 0
352 386 0
-49 -352 386 0
-352 -386 0
-49 352 -386 0
353 387 0
-50 -353 387 0
-353 -387 0
-50 353 -387 0
354 388 0
-51 -354 388 0
-354 -388 0
-51 354 -388 0
355 389 0
-52 -355 389 0
-355 -389 0
-52 355 -389 0
356 390 0
-53 -356 390 0
-356 -390 0
-53 356 -390 0
357 391 0
-54 -357 391 0
-357 -391 0
-54 357 -391 0
358 392 0
-55 -358 392 0
-358 -392 0
-55 358 -392 0
359 393 0
-56 -359 393 0
-359 -393 0
-56 359 -393 0
360 394 0
-57 -360 394 0
-360 -394 0
-57 360 -394 0
361 395 0
-58 -361 395 0
-361 -395 0
-58 361 -395 0
362 396 0
-59 -362 396 0
-362 -396 0
-59 362 -396 0
363 397 0
-60 -363 397 0
-363 -397 0
-60 363 -397 0
364 398 0
-61 -364 398 0
-364 -398 0
-61 364 -398 0
365 399 0
-62 -365 399 0
-365 -399 0
-62 365 -399 0
366 400 0
-63 -366 400 0
-366 -400 0
-63 366 -400 0
367 401 0
-64 -367 401 0
-367 -401 0
-64 367 -401 0
368 402 0
-65 -368 402 0
-368 -402 0
-65 368 -402 0
369 403 0
-66 -369 403 0
-369 -403 0
-66 369 -403 0
-372 404 0
1 -404 0
372 -404 0
-373 -404 405 0
404 -405 0
373 -405 0
-374 -405 406 0
405 -406 0
374 -406 0
-375 -406 407 0
406 -407 0
375 -407 0
-376 -407 408 0
407 -408 0
376 -408 0
-377 -408 409 0
408 -409 0
377 -409 0
-378 -409 410 0
409 -410 0
378 -410 0
-379 -410 411 0
410 -411 0
379 -411 0
-380 -411 412 0
411 -412 0
380 -412 0
-381 -412 413 0
412 -413 0
381 -413 0
-382 -413 414 0
413 -414 0
382 -414 0
-383 -414 415 0
414 -415 0
383 -415 0
-384 -415 416 0
415 -416 0
384 -416 0
-385 -416 417 0
416 -417 0
385 -417 0
-386 -417 418 0
417 -418 0
386 -418 0
-387 -418 419 0
418 -419 0
387 -419 0
-388 -419 420 0
419 -420 0
388 -420 0
-389 -420 421 0
420 -421 0
389 -421 0
-390 -421 422 0
421 -422 0
390 -422 0
-391 -422 423 0
422 -423 0
391 -423 0
-392 -423 424 0
423 -424 0
392 -424 0
-393 -424 425 0
424 -425 0
393 -425 0
-394 -425 426 0
425 -426 0
394 -426 0
-395 -426 427 0
426 -427 0
395 -427 0
-396 -427 428 0
427 -428 0
396 -428 0
-397 -428 429 0
428 -429 0
397 -429 0
-398 -429 430 0
429 -430 0
398 -430 0
-399 -430 431 0
430 -431 0
399 -431 0
-400 -431 432 0
431 -432 0
400 -432 0
-401 -432 433 0
432 -433 0
401 -433 0
-402 -433 434 0
433 -434 0
402 -434 0
-403 -434 435 0
434 -435 0
403 -435 0
-371 435 0
371 -435 0
370 371 0
-370 -371 0
337 436 0
-370 436 0
-337 370 -436 0
